benchmarks_CP/INST_64x64/50/inst64x64_50_49.dzn
S=8;
start=[|
3,	15,	-1,	51,	-1,	-1,	-1,	34,	-1,	-1,	21,	49,	-1,	-1,	-1,	52,	29,	39,	37,	-1,	-1,	8,	-1,	13,	20,	-1,	-1,	-1,	31,	-1,	-1,	-1,	-1,	-1,	-1,	-1,	-1,	-1,	-1,	-1,	42,	27,	55,	38,	57,	-1,	-1,	-1,	14,	-1,	35,	62,	41,	19,	-1,	1,	44,	5,	46,	-1,	16,	-1,	24,	64|
10,	20,	-1,	4,	25,	59,	-1,	-1,	61,	-1,	-1,	-1,	55,	-1,	62,	-1,	12,	-1,	26,	17,	-1,	-1,	-1,	-1,	-1,	-1,	-1,	49,	-1,	-1,	8,	41,	43,	36,	44,	9,	-1,	-1,	46,	24,	60,	-1,	29,	39,	-1,	58,	54,	-1,	-1,	-1,	-1,	-1,	-1,	52,	22,	-1,	-1,	-1,	-1,	-1,	-1,	-1,	6,	3|
-1,	11,	-1,	-1,	-1,	61,	-1,	62,	30,	45,	16,	44,	41,	46,	-1,	-1,	1,	-1,	50,	-1,	24,	42,	-1,	43,	-1,	-1,	-1,	4,	63,	-1,	64,	51,	-1,	-1,	40,	13,	59,	-1,	-1,	15,	-1,	-1,	-1,	7,	-1,	-1,	33,	-1,	-1,	20,	25,	-1,	39,	28,	-1,	-1,	-1,	-1,	-1,	60,	-1,	58,	-1,	-1|
-1,	5,	22,	-1,	-1,	30,	57,	55,	38,	-1,	39,	26,	8,	-1,	18,	-1,	-1,	16,	14,	-1,	58,	-1,	-1,	49,	-1,	40,	-1,	-1,	11,	-1,	47,	61,	-1,	29,	25,	-1,	42,	-1,	1,	53,	-1,	-1,	24,	10,	4,	-1,	-1,	21,	45,	-1,	-1,	-1,	6,	-1,	54,	43,	-1,	27,	-1,	52,	7,	-1,	9,	-1|
-1,	-1,	-1,	8,	58,	32,	14,	24,	-1,	50,	-1,	-1,	19,	31,	3,	9,	-1,	22,	-1,	60,	61,	57,	-1,	53,	-1,	6,	46,	10,	-1,	-1,	-1,	-1,	-1,	-1,	55,	5,	-1,	-1,	-1,	27,	-1,	12,	63,	37,	-1,	-1,	-1,	43,	-1,	-1,	34,	-1,	-1,	13,	44,	36,	1,	-1,	47,	-1,	11,	-1,	-1,	25|
48,	-1,	-1,	64,	-1,	44,	-1,	-1,	54,	14,	42,	56,	4,	29,	32,	7,	-1,	3,	-1,	2,	6,	-1,	63,	5,	-1,	-1,	17,	-1,	43,	16,	12,	-1,	-1,	-1,	22,	51,	8,	-1,	-1,	45,	49,	11,	-1,	30,	-1,	-1,	-1,	-1,	57,	61,	60,	47,	-1,	53,	-1,	-1,	28,	34,	-1,	39,	31,	-1,	-1,	50|
-1,	-1,	-1,	-1,	23,	42,	-1,	-1,	33,	1,	57,	60,	25,	-1,	-1,	10,	27,	62,	-1,	41,	19,	20,	40,	4,	44,	3,	39,	24,	55,	52,	21,	-1,	-1,	-1,	-1,	11,	-1,	50,	-1,	64,	22,	-1,	-1,	-1,	-1,	61,	-1,	-1,	-1,	8,	58,	-1,	31,	-1,	7,	16,	-1,	-1,	-1,	51,	2,	18,	48,	-1|
-1,	-1,	-1,	-1,	31,	-1,	49,	60,	-1,	17,	-1,	-1,	-1,	-1,	-1,	51,	-1,	-1,	30,	7,	-1,	-1,	-1,	-1,	-1,	-1,	-1,	36,	-1,	5,	59,	-1,	52,	20,	62,	-1,	-1,	-1,	56,	61,	15,	-1,	16,	44,	-1,	34,	-1,	-1,	4,	32,	-1,	-1,	46,	9,	27,	10,	43,	8,	-1,	53,	-1,	57,	63,	19|
8,	-1,	-1,	-1,	-1,	5,	-1,	4,	-1,	-1,	56,	47,	3,	49,	-1,	-1,	53,	-1,	-1,	46,	2,	6,	7,	-1,	1,	43,	-1,	38,	-1,	-1,	-1,	22,	17,	-1,	30,	24,	36,	39,	11,	-1,	-1,	-1,	48,	50,	37,	-1,	31,	-1,	26,	9,	-1,	19,	33,	16,	62,	-1,	54,	-1,	34,	-1,	-1,	29,	32,	61|
35,	-1,	53,	47,	38,	-1,	-1,	-1,	-1,	16,	62,	-1,	-1,	-1,	64,	-1,	-1,	-1,	-1,	29,	36,	1,	15,	-1,	-1,	-1,	-1,	-1,	-1,	4,	2,	-1,	10,	-1,	46,	-1,	-1,	40,	26,	14,	-1,	-1,	-1,	19,	-1,	-1,	-1,	8,	48,	-1,	-1,	34,	-1,	-1,	6,	-1,	-1,	-1,	27,	50,	28,	-1,	-1,	39|
42,	-1,	6,	46,	60,	-1,	34,	-1,	55,	-1,	61,	-1,	40,	-1,	9,	12,	37,	-1,	-1,	48,	13,	10,	20,	18,	58,	-1,	31,	-1,	47,	-1,	-1,	-1,	-1,	35,	-1,	32,	-1,	-1,	-1,	59,	43,	-1,	-1,	1,	-1,	17,	-1,	-1,	-1,	54,	-1,	-1,	44,	25,	-1,	28,	24,	-1,	-1,	57,	36,	16,	21,	8|
51,	-1,	30,	61,	-1,	14,	-1,	-1,	-1,	57,	54,	-1,	-1,	18,	-1,	1,	55,	-1,	33,	25,	-1,	-1,	41,	50,	-1,	46,	-1,	40,	42,	-1,	13,	11,	47,	-1,	-1,	7,	37,	48,	21,	4,	10,	-1,	-1,	-1,	-1,	15,	-1,	22,	17,	-1,	-1,	43,	53,	-1,	52,	-1,	60,	-1,	9,	-1,	-1,	-1,	20,	59|
-1,	-1,	-1,	-1,	27,	-1,	22,	-1,	-1,	-1,	-1,	-1,	-1,	4,	-1,	19,	62,	-1,	-1,	42,	-1,	-1,	-1,	51,	-1,	12,	24,	32,	37,	45,	50,	-1,	-1,	33,	-1,	-1,	-1,	31,	9,	44,	54,	58,	11,	25,	59,	63,	6,	-1,	1,	-1,	-1,	-1,	-1,	55,	-1,	-1,	-1,	38,	40,	-1,	-1,	2,	-1,	-1|
15,	50,	-1,	25,	18,	-1,	2,	43,	-1,	48,	59,	-1,	53,	35,	39,	30,	24,	19,	11,	-1,	-1,	54,	-1,	58,	-1,	-1,	34,	3,	23,	-1,	62,	16,	-1,	-1,	56,	-1,	38,	28,	27,	-1,	46,	-1,	-1,	52,	-1,	-1,	-1,	-1,	-1,	36,	-1,	64,	7,	-1,	31,	-1,	-1,	-1,	-1,	-1,	42,	10,	-1,	1|
-1,	-1,	-1,	-1,	-1,	-1,	-1,	12,	-1,	-1,	-1,	-1,	6,	-1,	7,	44,	5,	60,	-1,	-1,	-1,	-1,	34,	16,	61,	-1,	19,	-1,	21,	-1,	-1,	26,	-1,	-1,	-1,	25,	-1,	-1,	50,	-1,	18,	-1,	42,	-1,	2,	-1,	-1,	-1,	-1,	29,	51,	-1,	-1,	32,	39,	-1,	-1,	-1,	-1,	-1,	-1,	55,	-1,	41|
-1,	16,	26,	-1,	-1,	-1,	40,	-1,	8,	-1,	-1,	-1,	50,	-1,	-1,	-1,	-1,	-1,	-1,	-1,	-1,	-1,	-1,	-1,	-1,	-1,	-1,	5,	54,	-1,	48,	-1,	22,	55,	-1,	19,	-1,	12,	6,	34,	-1,	-1,	-1,	-1,	29,	-1,	-1,	-1,	35,	42,	-1,	3,	-1,	45,	20,	46,	-1,	-1,	-1,	-1,	-1,	31,	30,	-1|
49,	47,	63,	-1,	-1,	55,	6,	20,	-1,	38,	23,	4,	-1,	-1,	-1,	57,	2,	-1,	29,	34,	51,	-1,	-1,	33,	-1,	-1,	-1,	59,	-1,	-1,	-1,	-1,	19,	-1,	35,	-1,	27,	-1,	10,	16,	12,	41,	-1,	-1,	56,	-1,	-1,	-1,	18,	-1,	-1,	-1,	-1,	17,	-1,	39,	-1,	-1,	-1,	24,	-1,	-1,	50,	43|
61,	3,	-1,	35,	51,	-1,	4,	2,	43,	-1,	12,	-1,	58,	7,	52,	5,	-1,	-1,	-1,	11,	39,	-1,	-1,	-1,	41,	-1,	-1,	-1,	-1,	-1,	-1,	-1,	-1,	59,	38,	-1,	-1,	56,	45,	-1,	-1,	33,	-1,	-1,	44,	40,	-1,	31,	60,	23,	57,	-1,	-1,	24,	-1,	-1,	16,	-1,	-1,	19,	-1,	9,	-1,	28|
-1,	30,	-1,	-1,	-1,	-1,	39,	64,	-1,	-1,	-1,	-1,	-1,	42,	21,	-1,	-1,	-1,	27,	40,	28,	-1,	1,	-1,	52,	-1,	-1,	-1,	26,	10,	54,	57,	-1,	-1,	-1,	62,	-1,	5,	15,	17,	-1,	22,	-1,	35,	-1,	47,	-1,	61,	46,	-1,	-1,	-1,	9,	-1,	-1,	-1,	-1,	-1,	-1,	-1,	6,	-1,	8,	-1|
18,	-1,	-1,	57,	29,	1,	25,	-1,	59,	30,	-1,	-1,	15,	10,	-1,	40,	44,	-1,	-1,	-1,	-1,	5,	49,	55,	-1,	-1,	14,	46,	-1,	-1,	9,	63,	-1,	13,	-1,	-1,	-1,	20,	-1,	60,	38,	-1,	-1,	24,	11,	23,	-1,	-1,	22,	27,	28,	-1,	21,	-1,	42,	7,	51,	-1,	-1,	56,	62,	33,	61,	-1|
5,	14,	9,	54,	33,	46,	42,	21,	25,	-1,	-1,	2,	-1,	-1,	-1,	53,	-1,	36,	-1,	-1,	-1,	45,	-1,	64,	19,	35,	-1,	50,	7,	30,	-1,	58,	-1,	51,	34,	-1,	-1,	63,	-1,	37,	59,	29,	-1,	-1,	-1,	8,	-1,	1,	20,	-1,	-1,	-1,	-1,	-1,	-1,	15,	49,	-1,	-1,	-1,	17,	-1,	-1,	-1|
36,	-1,	59,	-1,	44,	-1,	-1,	-1,	-1,	11,	-1,	-1,	-1,	50,	17,	22,	-1,	-1,	58,	43,	-1,	4,	-1,	23,	62,	8,	-1,	45,	13,	24,	39,	49,	61,	2,	32,	21,	-1,	-1,	29,	-1,	-1,	30,	57,	-1,	-1,	42,	18,	-1,	-1,	-1,	19,	14,	-1,	-1,	63,	52,	37,	-1,	25,	-1,	-1,	53,	-1,	34|
13,	19,	-1,	-1,	37,	7,	17,	27,	18,	9,	-1,	-1,	36,	-1,	14,	-1,	46,	-1,	61,	-1,	-1,	59,	-1,	41,	-1,	-1,	11,	-1,	51,	-1,	34,	-1,	48,	43,	33,	-1,	-1,	54,	-1,	49,	21,	-1,	-1,	-1,	64,	39,	4,	-1,	-1,	-1,	-1,	-1,	-1,	26,	-1,	31,	30,	52,	1,	5,	-1,	45,	2,	60|
-1,	26,	-1,	22,	-1,	-1,	-1,	41,	63,	-1,	47,	-1,	-1,	39,	37,	61,	21,	-1,	-1,	19,	30,	-1,	-1,	54,	-1,	44,	-1,	2,	-1,	55,	-1,	43,	31,	-1,	11,	-1,	-1,	6,	7,	57,	5,	20,	-1,	-1,	-1,	-1,	9,	-1,	-1,	34,	62,	-1,	59,	-1,	50,	29,	40,	42,	-1,	32,	18,	-1,	-1,	-1|
-1,	1,	51,	-1,	-1,	-1,	37,	-1,	-1,	61,	14,	-1,	-1,	16,	48,	58,	-1,	4,	-1,	-1,	-1,	19,	44,	-1,	10,	-1,	28,	-1,	-1,	60,	-1,	-1,	41,	38,	26,	63,	55,	35,	5,	29,	8,	-1,	-1,	13,	36,	-1,	20,	33,	-1,	-1,	-1,	12,	-1,	56,	24,	-1,	52,	46,	-1,	-1,	32,	-1,	-1,	-1|
34,	-1,	-1,	-1,	-1,	23,	-1,	-1,	5,	36,	60,	-1,	51,	22,	-1,	56,	11,	-1,	55,	-1,	-1,	-1,	-1,	12,	46,	-1,	-1,	-1,	-1,	-1,	-1,	13,	20,	19,	-1,	17,	15,	10,	-1,	50,	-1,	-1,	-1,	-1,	-1,	-1,	48,	63,	-1,	-1,	-1,	28,	64,	-1,	58,	57,	35,	40,	-1,	-1,	-1,	-1,	-1,	27|
58,	48,	15,	-1,	-1,	-1,	61,	31,	-1,	-1,	-1,	52,	29,	-1,	12,	-1,	41,	-1,	1,	-1,	9,	56,	-1,	-1,	18,	-1,	38,	30,	-1,	-1,	-1,	4,	-1,	-1,	49,	6,	7,	16,	36,	-1,	-1,	-1,	-1,	47,	-1,	54,	-1,	5,	-1,	-1,	26,	42,	-1,	-1,	34,	-1,	33,	-1,	51,	14,	-1,	-1,	60,	23|
-1,	55,	4,	33,	8,	-1,	-1,	-1,	47,	53,	-1,	-1,	-1,	-1,	42,	20,	34,	54,	-1,	61,	-1,	-1,	-1,	-1,	-1,	-1,	-1,	-1,	-1,	14,	-1,	24,	25,	31,	-1,	-1,	40,	62,	32,	9,	-1,	-1,	-1,	-1,	-1,	-1,	-1,	-1,	27,	-1,	36,	1,	16,	3,	-1,	11,	-1,	-1,	49,	-1,	58,	-1,	44,	-1|
-1,	64,	-1,	-1,	-1,	39,	-1,	38,	19,	-1,	-1,	-1,	-1,	32,	-1,	62,	-1,	25,	-1,	-1,	14,	-1,	-1,	-1,	5,	63,	-1,	57,	-1,	35,	-1,	3,	-1,	-1,	12,	-1,	51,	-1,	-1,	33,	29,	53,	-1,	-1,	18,	-1,	42,	41,	-1,	6,	-1,	23,	45,	-1,	49,	2,	-1,	-1,	16,	9,	-1,	-1,	28,	-1|
25,	6,	-1,	-1,	-1,	49,	-1,	-1,	-1,	-1,	18,	-1,	-1,	-1,	41,	-1,	38,	-1,	-1,	-1,	35,	37,	17,	36,	12,	-1,	40,	-1,	61,	-1,	55,	-1,	45,	-1,	58,	42,	23,	4,	48,	-1,	-1,	-1,	-1,	-1,	50,	52,	-1,	-1,	-1,	-1,	-1,	20,	51,	59,	-1,	-1,	-1,	-1,	-1,	-1,	-1,	47,	39,	-1|
16,	57,	-1,	-1,	-1,	-1,	-1,	44,	7,	-1,	30,	-1,	34,	-1,	-1,	-1,	3,	45,	64,	28,	-1,	-1,	46,	-1,	23,	50,	9,	-1,	62,	26,	27,	20,	1,	39,	-1,	-1,	54,	-1,	-1,	47,	-1,	60,	32,	-1,	-1,	25,	15,	-1,	8,	14,	-1,	-1,	4,	22,	29,	35,	-1,	12,	-1,	43,	38,	41,	-1,	11|
-1,	-1,	56,	12,	41,	-1,	-1,	3,	-1,	2,	55,	-1,	-1,	-1,	-1,	-1,	23,	21,	47,	-1,	42,	-1,	58,	7,	-1,	45,	33,	8,	36,	-1,	29,	59,	34,	-1,	28,	27,	-1,	-1,	22,	-1,	4,	16,	14,	62,	19,	44,	-1,	10,	37,	5,	-1,	18,	32,	40,	46,	-1,	25,	53,	24,	-1,	-1,	-1,	-1,	-1|
-1,	23,	8,	-1,	-1,	-1,	-1,	-1,	-1,	-1,	-1,	-1,	45,	-1,	10,	-1,	59,	46,	-1,	16,	21,	34,	-1,	-1,	-1,	-1,	-1,	25,	-1,	-1,	-1,	-1,	-1,	-1,	-1,	52,	-1,	58,	37,	-1,	48,	5,	41,	-1,	-1,	-1,	1,	-1,	51,	35,	-1,	63,	-1,	-1,	-1,	-1,	29,	28,	-1,	55,	61,	-1,	19,	-1|
-1,	61,	-1,	-1,	-1,	-1,	-1,	36,	-1,	-1,	-1,	42,	49,	38,	-1,	-1,	-1,	-1,	4,	56,	-1,	29,	-1,	-1,	37,	62,	-1,	-1,	15,	58,	14,	34,	33,	9,	-1,	60,	46,	-1,	-1,	-1,	30,	-1,	-1,	-1,	-1,	-1,	-1,	24,	2,	22,	64,	-1,	-1,	6,	32,	-1,	-1,	-1,	-1,	54,	12,	3,	-1,	18|
-1,	-1,	11,	43,	42,	38,	32,	5,	-1,	-1,	-1,	35,	-1,	37,	-1,	-1,	51,	58,	-1,	-1,	8,	7,	-1,	10,	-1,	-1,	6,	21,	-1,	19,	-1,	12,	64,	57,	1,	50,	48,	-1,	-1,	54,	52,	-1,	20,	15,	-1,	-1,	61,	14,	55,	46,	-1,	36,	-1,	-1,	59,	13,	17,	25,	-1,	34,	-1,	-1,	26,	62|
-1,	24,	31,	17,	-1,	-1,	33,	-1,	13,	8,	-1,	-1,	16,	21,	-1,	-1,	-1,	14,	-1,	-1,	41,	-1,	38,	61,	-1,	7,	23,	-1,	-1,	-1,	57,	56,	-1,	-1,	-1,	36,	45,	34,	-1,	2,	-1,	-1,	12,	49,	25,	27,	19,	-1,	-1,	52,	40,	-1,	28,	-1,	53,	54,	-1,	-1,	5,	-1,	4,	42,	11,	47|
-1,	-1,	-1,	34,	-1,	57,	-1,	-1,	-1,	-1,	-1,	-1,	-1,	53,	-1,	60,	-1,	63,	49,	-1,	-1,	2,	45,	24,	-1,	61,	13,	-1,	-1,	64,	51,	35,	16,	-1,	39,	-1,	5,	-1,	-1,	12,	9,	17,	-1,	-1,	10,	-1,	-1,	-1,	-1,	38,	8,	-1,	37,	58,	-1,	23,	21,	-1,	7,	-1,	-1,	-1,	46,	-1|
-1,	46,	-1,	-1,	-1,	53,	18,	13,	-1,	-1,	7,	-1,	-1,	-1,	-1,	-1,	-1,	50,	39,	-1,	-1,	-1,	22,	35,	-1,	-1,	49,	-1,	24,	32,	3,	-1,	-1,	-1,	-1,	-1,	-1,	-1,	-1,	-1,	-1,	42,	-1,	28,	21,	62,	-1,	-1,	-1,	-1,	-1,	-1,	12,	5,	-1,	17,	27,	45,	8,	58,	-1,	-1,	38,	-1|
-1,	56,	-1,	-1,	4,	12,	-1,	14,	51,	24,	-1,	23,	61,	-1,	-1,	39,	-1,	47,	-1,	33,	32,	52,	37,	17,	29,	36,	60,	44,	8,	-1,	-1,	38,	49,	-1,	20,	55,	31,	41,	42,	-1,	58,	59,	46,	57,	54,	-1,	-1,	64,	21,	45,	30,	-1,	-1,	-1,	16,	27,	-1,	48,	-1,	-1,	9,	13,	-1,	-1|
29,	-1,	-1,	16,	7,	-1,	-1,	58,	62,	-1,	-1,	40,	-1,	-1,	36,	-1,	-1,	-1,	6,	64,	-1,	9,	-1,	-1,	-1,	59,	-1,	-1,	-1,	42,	5,	48,	-1,	-1,	15,	56,	-1,	-1,	53,	-1,	-1,	-1,	-1,	-1,	-1,	43,	-1,	35,	-1,	-1,	-1,	11,	-1,	61,	-1,	-1,	23,	50,	-1,	37,	49,	24,	-1,	52|
19,	7,	-1,	42,	-1,	4,	-1,	56,	35,	18,	-1,	-1,	30,	-1,	-1,	24,	-1,	-1,	-1,	53,	-1,	-1,	29,	2,	64,	22,	-1,	-1,	-1,	49,	63,	54,	32,	-1,	13,	59,	62,	-1,	-1,	-1,	25,	-1,	-1,	16,	-1,	55,	-1,	15,	-1,	-1,	41,	-1,	11,	14,	21,	9,	38,	44,	23,	33,	20,	60,	-1,	45|
9,	29,	-1,	-1,	-1,	-1,	50,	-1,	28,	-1,	51,	55,	2,	44,	11,	46,	17,	-1,	-1,	4,	-1,	21,	39,	-1,	8,	-1,	45,	-1,	58,	3,	24,	40,	23,	1,	-1,	-1,	33,	-1,	-1,	5,	64,	-1,	19,	-1,	27,	22,	-1,	-1,	62,	-1,	32,	-1,	-1,	54,	-1,	-1,	-1,	-1,	12,	42,	37,	-1,	15,	16|
44,	51,	2,	-1,	12,	-1,	58,	-1,	-1,	41,	53,	5,	-1,	54,	29,	-1,	60,	52,	22,	6,	64,	18,	36,	63,	-1,	15,	-1,	-1,	-1,	43,	-1,	-1,	30,	26,	-1,	10,	-1,	7,	-1,	-1,	-1,	62,	1,	-1,	-1,	49,	-1,	17,	-1,	-1,	-1,	40,	-1,	8,	-1,	-1,	-1,	11,	55,	-1,	-1,	28,	-1,	56|
20,	59,	-1,	-1,	21,	-1,	-1,	8,	-1,	-1,	33,	7,	-1,	-1,	40,	63,	61,	37,	34,	-1,	-1,	3,	-1,	19,	32,	13,	36,	-1,	-1,	-1,	18,	-1,	-1,	54,	45,	-1,	-1,	46,	-1,	-1,	-1,	57,	39,	-1,	53,	24,	28,	-1,	12,	31,	-1,	-1,	-1,	50,	-1,	4,	-1,	2,	6,	22,	-1,	52,	-1,	35|
-1,	-1,	35,	14,	-1,	3,	-1,	-1,	64,	47,	-1,	13,	48,	45,	-1,	-1,	-1,	51,	54,	-1,	-1,	-1,	33,	44,	-1,	34,	2,	-1,	50,	39,	11,	-1,	-1,	-1,	18,	53,	-1,	15,	-1,	58,	56,	9,	6,	-1,	-1,	4,	-1,	12,	-1,	-1,	-1,	-1,	63,	20,	57,	38,	-1,	-1,	31,	17,	29,	19,	-1,	-1|
64,	-1,	-1,	28,	-1,	-1,	-1,	-1,	52,	-1,	25,	61,	20,	-1,	-1,	-1,	-1,	27,	41,	12,	46,	13,	42,	-1,	4,	10,	16,	-1,	-1,	38,	-1,	37,	24,	-1,	60,	2,	29,	36,	51,	22,	44,	-1,	-1,	-1,	63,	-1,	-1,	-1,	-1,	-1,	-1,	30,	-1,	39,	-1,	-1,	57,	49,	32,	8,	-1,	-1,	-1,	-1|
-1,	-1,	-1,	5,	-1,	63,	-1,	11,	-1,	-1,	8,	-1,	39,	-1,	31,	-1,	10,	-1,	7,	-1,	-1,	25,	-1,	30,	-1,	-1,	47,	29,	-1,	-1,	61,	-1,	6,	-1,	50,	-1,	41,	43,	-1,	-1,	-1,	51,	-1,	3,	-1,	21,	-1,	-1,	19,	-1,	17,	22,	-1,	34,	-1,	44,	-1,	18,	58,	-1,	-1,	54,	-1,	-1|
60,	18,	-1,	-1,	10,	-1,	-1,	-1,	6,	-1,	38,	21,	-1,	-1,	22,	-1,	45,	-1,	-1,	-1,	31,	-1,	-1,	-1,	42,	51,	-1,	-1,	53,	-1,	28,	-1,	-1,	44,	-1,	-1,	-1,	-1,	-1,	11,	26,	-1,	-1,	29,	8,	5,	58,	-1,	7,	56,	-1,	-1,	-1,	-1,	2,	-1,	46,	61,	50,	4,	63,	-1,	-1,	-1|
-1,	-1,	-1,	-1,	-1,	6,	-1,	-1,	53,	19,	-1,	11,	-1,	-1,	59,	28,	-1,	-1,	12,	-1,	7,	-1,	54,	46,	-1,	9,	-1,	-1,	3,	-1,	-1,	55,	-1,	-1,	-1,	57,	34,	-1,	-1,	-1,	-1,	38,	37,	2,	-1,	56,	-1,	48,	43,	-1,	-1,	4,	-1,	42,	17,	22,	31,	47,	52,	-1,	-1,	25,	23,	-1|
46,	-1,	-1,	50,	54,	29,	-1,	57,	-1,	-1,	-1,	31,	-1,	-1,	-1,	-1,	58,	61,	-1,	38,	62,	-1,	53,	56,	-1,	-1,	43,	11,	-1,	-1,	-1,	-1,	-1,	10,	-1,	-1,	-1,	-1,	-1,	36,	-1,	1,	49,	-1,	42,	-1,	-1,	59,	13,	-1,	5,	33,	-1,	-1,	35,	-1,	3,	30,	-1,	-1,	-1,	51,	37,	-1|
2,	43,	12,	-1,	47,	-1,	-1,	26,	48,	6,	34,	-1,	-1,	52,	-1,	38,	32,	57,	-1,	37,	40,	11,	8,	-1,	-1,	-1,	18,	61,	25,	-1,	15,	-1,	-1,	-1,	51,	-1,	-1,	-1,	-1,	19,	53,	4,	-1,	-1,	28,	-1,	39,	-1,	50,	-1,	-1,	24,	-1,	27,	-1,	41,	-1,	-1,	-1,	36,	-1,	44,	54,	-1|
23,	8,	16,	44,	15,	-1,	63,	-1,	-1,	22,	-1,	-1,	35,	-1,	-1,	-1,	31,	30,	-1,	9,	4,	-1,	-1,	34,	-1,	-1,	-1,	56,	-1,	-1,	53,	33,	-1,	-1,	-1,	-1,	64,	1,	-1,	41,	-1,	-1,	61,	27,	-1,	6,	-1,	57,	-1,	-1,	54,	-1,	-1,	-1,	-1,	14,	45,	59,	-1,	18,	-1,	12,	-1,	21|
-1,	-1,	-1,	37,	45,	58,	-1,	-1,	-1,	10,	-1,	39,	54,	33,	57,	-1,	-1,	-1,	28,	23,	16,	-1,	2,	14,	59,	32,	-1,	-1,	35,	-1,	4,	-1,	27,	6,	48,	-1,	56,	-1,	-1,	-1,	47,	-1,	-1,	34,	30,	-1,	21,	-1,	-1,	64,	-1,	53,	-1,	51,	-1,	-1,	-1,	-1,	61,	-1,	-1,	-1,	-1,	-1|
-1,	-1,	-1,	-1,	-1,	-1,	38,	25,	-1,	46,	-1,	-1,	-1,	2,	-1,	47,	6,	33,	42,	3,	-1,	-1,	-1,	45,	-1,	5,	-1,	-1,	16,	63,	-1,	8,	-1,	-1,	9,	35,	-1,	21,	13,	31,	-1,	-1,	-1,	41,	-1,	18,	-1,	-1,	-1,	49,	-1,	37,	-1,	57,	28,	12,	56,	-1,	43,	11,	-1,	4,	7,	20|
-1,	41,	48,	-1,	28,	33,	1,	19,	12,	-1,	-1,	45,	-1,	60,	-1,	-1,	26,	-1,	63,	5,	-1,	49,	47,	21,	-1,	54,	50,	6,	46,	13,	37,	23,	-1,	32,	17,	-1,	22,	-1,	-1,	7,	11,	-1,	43,	-1,	58,	31,	55,	51,	61,	-1,	56,	-1,	8,	-1,	36,	3,	-1,	16,	-1,	64,	-1,	39,	-1,	38|
-1,	-1,	-1,	20,	5,	60,	-1,	49,	32,	7,	-1,	63,	21,	56,	-1,	26,	-1,	18,	-1,	-1,	43,	-1,	55,	-1,	28,	47,	-1,	64,	-1,	-1,	58,	-1,	37,	-1,	-1,	-1,	-1,	-1,	54,	30,	23,	-1,	44,	-1,	-1,	10,	-1,	9,	31,	39,	45,	-1,	34,	-1,	-1,	-1,	6,	-1,	-1,	13,	8,	-1,	-1,	33|
-1,	-1,	-1,	3,	-1,	48,	-1,	-1,	-1,	44,	64,	-1,	7,	-1,	54,	11,	-1,	-1,	16,	-1,	22,	-1,	-1,	40,	-1,	38,	-1,	-1,	-1,	17,	-1,	42,	-1,	25,	-1,	-1,	-1,	37,	-1,	10,	-1,	-1,	-1,	-1,	35,	46,	12,	27,	-1,	62,	-1,	60,	13,	-1,	-1,	-1,	5,	-1,	39,	-1,	33,	63,	52,	51|
-1,	21,	33,	9,	61,	20,	28,	37,	-1,	-1,	36,	-1,	63,	-1,	30,	32,	39,	41,	-1,	-1,	-1,	23,	-1,	-1,	-1,	57,	-1,	13,	59,	-1,	56,	-1,	-1,	-1,	-1,	64,	-1,	-1,	-1,	-1,	-1,	-1,	-1,	54,	-1,	29,	25,	55,	58,	51,	-1,	27,	40,	-1,	-1,	-1,	14,	24,	-1,	16,	26,	35,	-1,	22|
-1,	-1,	1,	58,	-1,	-1,	64,	59,	-1,	-1,	-1,	-1,	62,	-1,	23,	6,	-1,	42,	24,	-1,	-1,	-1,	-1,	60,	36,	16,	25,	39,	14,	51,	26,	-1,	5,	-1,	-1,	-1,	-1,	29,	-1,	18,	17,	15,	-1,	-1,	-1,	-1,	-1,	52,	33,	-1,	-1,	49,	-1,	-1,	-1,	30,	55,	10,	-1,	41,	-1,	27,	13,	-1|
-1,	-1,	10,	15,	-1,	35,	-1,	52,	50,	26,	41,	-1,	57,	-1,	53,	-1,	49,	2,	38,	-1,	45,	46,	64,	28,	54,	30,	37,	-1,	32,	-1,	6,	62,	56,	-1,	31,	33,	-1,	55,	58,	20,	13,	19,	4,	-1,	22,	-1,	7,	-1,	36,	-1,	11,	39,	25,	43,	-1,	-1,	-1,	-1,	-1,	-1,	-1,	-1,	47,	29|
31,	-1,	-1,	-1,	-1,	34,	8,	22,	29,	-1,	13,	15,	38,	-1,	47,	17,	4,	11,	25,	-1,	-1,	53,	61,	3,	43,	-1,	-1,	63,	2,	-1,	52,	10,	21,	-1,	54,	-1,	-1,	-1,	39,	23,	45,	-1,	33,	-1,	-1,	-1,	-1,	44,	-1,	7,	48,	-1,	14,	-1,	26,	24,	50,	-1,	-1,	-1,	64,	-1,	56,	-1|
-1,	12,	-1,	-1,	-1,	40,	-1,	-1,	16,	-1,	-1,	-1,	-1,	-1,	60,	49,	-1,	6,	8,	-1,	-1,	-1,	9,	20,	-1,	-1,	-1,	-1,	28,	-1,	46,	-1,	-1,	45,	-1,	48,	-1,	-1,	-1,	26,	-1,	-1,	23,	14,	39,	41,	10,	34,	64,	63,	38,	-1,	42,	31,	3,	-1,	58,	-1,	-1,	2,	25,	36,	57,	-1|
-1,	25,	-1,	-1,	13,	-1,	7,	-1,	10,	-1,	-1,	12,	9,	-1,	-1,	-1,	-1,	5,	51,	54,	-1,	27,	-1,	62,	-1,	58,	-1,	19,	48,	-1,	44,	29,	-1,	22,	-1,	-1,	-1,	47,	-1,	-1,	24,	56,	59,	53,	26,	-1,	-1,	36,	-1,	-1,	50,	-1,	17,	-1,	15,	20,	-1,	-1,	-1,	-1,	23,	-1,	-1,	-1|
-1,	53,	39,	11,	26,	27,	30,	46,	-1,	-1,	52,	-1,	37,	1,	-1,	-1,	-1,	34,	36,	63,	48,	-1,	18,	-1,	-1,	55,	-1,	-1,	40,	12,	-1,	-1,	51,	62,	24,	61,	-1,	42,	19,	-1,	-1,	47,	-1,	-1,	49,	50,	16,	-1,	-1,	59,	-1,	-1,	-1,	10,	41,	-1,	7,	31,	3,	38,	-1,	-1,	-1,	44|];
