sudoku-ls/benchmarks_LEQ/INST_64x64/50/inst64x64_50_49.txt
8
1
-1	-1	-1	-1	-1	2	54	-1	-1	40	-1	49	-1	-1	58	-1	-1	39	37	45	-1	8	-1	13	20	-1	-1	-1	31	-1	60	-1	18	-1	-1	-1	10	32	63	48	42	27	-1	38	-1	-1	-1	-1	-1	50	-1	62	-1	-1	-1	1	44	5	46	-1	-1	-1	-1	64
10	-1	-1	-1	25	59	16	-1	61	-1	-1	-1	-1	-1	62	-1	-1	-1	26	-1	34	-1	-1	-1	-1	-1	-1	49	-1	28	8	41	-1	-1	-1	9	35	-1	-1	-1	-1	31	29	-1	5	-1	-1	2	11	18	37	-1	-1	52	-1	64	42	33	21	45	40	-1	6	3
26	-1	-1	-1	56	-1	52	62	30	-1	-1	-1	-1	46	35	-1	-1	-1	50	47	-1	42	10	43	38	-1	-1	-1	63	-1	64	51	2	-1	-1	13	59	-1	-1	-1	-1	-1	-1	7	9	-1	33	-1	-1	-1	-1	17	-1	28	5	-1	-1	-1	29	-1	22	-1	55	36
33	-1	-1	-1	63	30	57	-1	-1	-1	39	26	8	28	18	15	64	16	-1	44	58	36	59	49	-1	-1	32	37	11	-1	-1	-1	60	-1	25	31	-1	19	1	53	62	23	-1	10	-1	-1	46	-1	-1	-1	3	51	-1	-1	-1	43	20	-1	-1	52	-1	17	-1	13
-1	-1	-1	-1	58	-1	-1	-1	2	50	-1	59	19	31	3	-1	54	-1	15	-1	-1	-1	-1	-1	35	-1	46	-1	-1	62	-1	-1	-1	7	-1	-1	39	38	16	-1	41	-1	63	-1	48	-1	64	43	-1	-1	34	56	-1	13	-1	-1	-1	-1	47	-1	11	-1	49	25
-1	-1	-1	-1	-1	44	-1	-1	-1	-1	-1	-1	-1	29	32	-1	-1	3	9	2	-1	38	-1	5	-1	25	-1	23	43	16	12	-1	58	-1	22	51	8	-1	-1	-1	49	11	13	-1	-1	-1	52	20	57	61	60	47	24	53	55	-1	28	34	10	39	31	62	-1	50
12	-1	29	-1	23	42	47	-1	33	1	57	-1	25	5	-1	10	27	62	-1	41	19	20	-1	4	44	-1	39	-1	55	52	-1	-1	54	17	-1	11	6	50	-1	64	22	-1	-1	-1	45	-1	14	28	49	8	-1	-1	31	63	-1	-1	-1	-1	38	51	-1	18	48	-1
-1	-1	-1	1	31	-1	49	60	-1	17	-1	-1	-1	-1	24	51	33	35	-1	7	-1	55	21	-1	-1	48	-1	-1	29	5	59	14	52	20	-1	26	-1	-1	-1	-1	-1	-1	16	-1	47	34	-1	50	-1	32	42	2	-1	9	-1	-1	43	8	54	-1	41	57	63	19
8	-1	-1	13	64	-1	-1	-1	-1	-1	-1	47	-1	49	63	-1	-1	-1	-1	-1	2	-1	-1	27	1	-1	-1	-1	10	15	-1	-1	-1	-1	30	-1	-1	39	-1	42	55	-1	-1	-1	37	-1	-1	-1	26	-1	12	19	33	-1	-1	18	54	-1	-1	25	-1	-1	32	-1
35	58	-1	-1	38	-1	44	7	42	16	62	-1	-1	-1	-1	-1	-1	-1	43	29	-1	1	-1	22	-1	-1	-1	-1	-1	4	-1	52	-1	-1	46	-1	20	-1	26	-1	-1	24	30	19	32	-1	45	-1	48	-1	-1	34	56	-1	-1	37	18	-1	27	-1	-1	5	12	39
-1	33	-1	-1	-1	19	-1	-1	55	-1	61	22	40	-1	-1	12	-1	49	-1	-1	13	-1	-1	18	-1	14	31	53	-1	56	-1	64	-1	35	52	-1	2	51	23	-1	43	-1	-1	-1	-1	-1	-1	39	-1	-1	-1	-1	-1	25	4	28	-1	-1	11	57	36	16	-1	-1
-1	39	30	61	-1	-1	-1	-1	31	-1	54	38	-1	18	45	-1	-1	26	-1	25	44	-1	41	50	-1	46	8	40	42	29	13	-1	47	-1	16	-1	-1	48	-1	4	10	-1	35	-1	34	-1	36	-1	17	-1	63	-1	-1	-1	52	-1	60	-1	-1	-1	19	49	-1	-1
-1	10	17	36	-1	-1	-1	-1	34	20	-1	-1	52	4	5	19	62	56	3	-1	-1	-1	-1	51	7	12	24	32	37	45	50	39	13	-1	64	18	43	31	-1	-1	-1	58	-1	-1	-1	63	6	-1	1	57	49	8	-1	55	14	-1	47	-1	-1	48	-1	-1	53	26
15	50	55	-1	18	37	2	-1	26	-1	-1	14	-1	35	-1	30	24	19	-1	32	57	54	4	-1	-1	17	34	3	23	-1	-1	-1	29	49	-1	45	38	-1	-1	8	-1	61	21	-1	-1	-1	-1	40	5	-1	-1	64	7	41	31	-1	63	51	-1	-1	42	-1	33	1
-1	9	54	23	49	-1	-1	-1	24	37	-1	-1	-1	-1	-1	44	5	60	-1	8	-1	64	34	16	-1	28	19	20	21	33	-1	26	15	-1	-1	-1	-1	3	-1	-1	18	13	42	-1	-1	14	27	-1	-1	-1	-1	-1	-1	32	39	59	-1	-1	-1	62	46	55	35	-1
-1	16	26	-1	11	24	-1	-1	8	13	-1	36	50	-1	2	-1	63	28	-1	-1	-1	61	-1	-1	-1	18	44	-1	54	-1	48	60	22	55	-1	19	-1	12	6	-1	-1	-1	-1	9	-1	-1	-1	-1	35	42	21	-1	15	-1	-1	-1	-1	-1	-1	7	-1	31	30	37
-1	-1	-1	-1	-1	-1	6	20	-1	-1	-1	4	28	-1	44	57	2	7	29	34	-1	22	3	33	-1	31	-1	-1	-1	25	-1	5	-1	-1	-1	-1	-1	9	10	-1	12	-1	-1	46	56	-1	-1	-1	-1	30	53	54	1	17	8	39	15	13	26	24	21	-1	-1	-1
-1	3	-1	35	-1	-1	-1	-1	-1	54	-1	46	58	-1	-1	-1	-1	-1	13	11	-1	26	6	-1	-1	21	-1	-1	1	-1	22	36	53	59	-1	30	47	56	45	-1	-1	-1	27	17	44	-1	63	-1	-1	23	57	-1	49	24	-1	55	16	-1	14	-1	10	-1	-1	-1
11	30	-1	56	34	-1	39	-1	-1	55	-1	32	-1	42	21	33	-1	38	-1	-1	-1	-1	-1	-1	52	29	53	60	-1	10	54	57	-1	-1	-1	62	18	-1	15	17	-1	-1	25	-1	-1	-1	3	61	-1	-1	4	58	-1	44	48	-1	-1	-1	-1	63	6	20	-1	-1
18	31	-1	-1	-1	-1	-1	-1	59	-1	-1	-1	15	-1	34	-1	44	53	-1	-1	50	-1	-1	55	17	37	14	-1	-1	-1	9	63	36	-1	3	41	4	20	-1	60	-1	-1	54	24	-1	-1	2	-1	-1	-1	-1	-1	-1	-1	42	7	51	-1	48	-1	62	-1	61	-1
-1	14	9	54	33	-1	42	-1	25	3	-1	2	-1	48	-1	53	47	36	-1	62	60	45	-1	-1	-1	-1	-1	-1	7	-1	-1	-1	-1	-1	34	39	28	-1	40	-1	59	-1	10	-1	52	-1	-1	1	20	13	61	41	-1	-1	56	-1	49	23	-1	31	-1	38	-1	-1
36	-1	59	38	-1	15	10	40	41	11	-1	-1	-1	-1	17	-1	-1	-1	-1	-1	-1	-1	-1	-1	62	-1	-1	45	13	24	39	-1	61	-1	-1	21	-1	-1	-1	46	28	-1	-1	48	-1	-1	-1	-1	-1	-1	-1	-1	5	-1	63	-1	-1	-1	-1	47	-1	-1	3	34
-1	19	58	-1	-1	-1	17	27	18	-1	35	-1	-1	20	-1	29	-1	-1	61	-1	63	59	-1	41	56	-1	11	-1	-1	-1	34	28	-1	43	33	22	24	-1	44	-1	21	50	-1	55	64	-1	-1	53	16	3	10	-1	-1	-1	40	-1	-1	-1	1	-1	57	-1	2	60
28	-1	23	22	53	8	12	-1	63	64	47	16	56	39	37	-1	-1	17	-1	-1	30	-1	24	-1	-1	44	-1	2	33	-1	38	-1	31	-1	-1	58	-1	6	-1	-1	5	20	-1	-1	60	-1	9	49	25	-1	62	-1	59	-1	50	-1	40	-1	35	-1	18	46	-1	-1
22	-1	51	40	-1	-1	37	-1	-1	61	14	-1	-1	-1	-1	-1	-1	-1	-1	-1	18	-1	-1	-1	10	64	28	-1	34	60	31	6	-1	-1	26	63	-1	35	-1	29	8	21	9	-1	36	3	20	33	-1	47	43	-1	-1	-1	24	25	52	46	62	59	32	7	45	-1
-1	62	-1	-1	59	-1	29	-1	5	36	60	-1	51	-1	8	-1	11	24	-1	-1	-1	-1	16	12	-1	53	-1	-1	49	41	-1	-1	20	19	-1	17	-1	10	-1	-1	-1	7	-1	-1	-1	-1	-1	-1	-1	21	44	28	-1	38	-1	57	-1	-1	4	-1	-1	-1	18	27
58	48	-1	27	46	28	-1	31	-1	25	40	-1	-1	-1	12	-1	-1	-1	1	20	-1	-1	-1	-1	-1	11	38	30	44	37	-1	4	-1	53	-1	-1	-1	16	-1	-1	-1	2	-1	-1	24	54	59	-1	-1	17	26	42	50	62	-1	19	-1	-1	51	-1	55	64	60	23
50	55	4	-1	-1	-1	35	-1	-1	53	-1	37	-1	6	42	-1	34	54	60	-1	-1	-1	-1	-1	-1	-1	-1	-1	22	-1	7	-1	25	31	-1	46	40	62	32	-1	-1	39	17	-1	-1	-1	-1	38	27	-1	-1	1	-1	3	13	-1	-1	-1	-1	-1	-1	48	-1	-1
47	-1	-1	60	-1	39	-1	38	-1	-1	-1	-1	43	-1	-1	-1	-1	25	-1	-1	14	40	50	26	-1	63	56	-1	17	-1	1	3	59	-1	-1	8	51	44	-1	33	29	-1	-1	-1	-1	37	-1	-1	30	6	-1	23	45	-1	49	-1	-1	-1	16	-1	34	-1	28	54
-1	6	14	-1	2	49	24	53	3	21	-1	-1	44	-1	41	-1	-1	43	62	-1	35	37	17	-1	12	19	-1	16	-1	54	55	32	45	-1	-1	42	-1	-1	48	-1	-1	28	26	-1	-1	52	34	-1	-1	60	9	-1	-1	-1	10	-1	-1	57	-1	29	13	47	39	5
-1	57	42	-1	19	-1	-1	-1	7	-1	-1	17	-1	24	49	-1	-1	-1	-1	-1	53	63	46	6	23	-1	-1	-1	-1	26	27	-1	1	39	-1	-1	54	13	18	-1	-1	-1	32	-1	-1	25	15	-1	8	-1	52	-1	-1	-1	-1	35	-1	-1	-1	-1	38	-1	-1	11
43	-1	56	-1	41	-1	26	-1	15	-1	55	-1	-1	-1	38	35	23	21	-1	-1	-1	51	58	-1	-1	-1	33	8	36	-1	29	59	34	30	-1	-1	-1	-1	-1	-1	-1	-1	14	-1	19	44	49	10	37	5	-1	18	-1	-1	46	61	-1	53	24	-1	50	6	-1	-1
-1	23	8	30	50	-1	60	39	57	-1	44	-1	-1	-1	10	54	59	46	40	-1	21	-1	-1	15	-1	4	26	25	-1	-1	-1	53	-1	-1	7	52	-1	58	-1	-1	48	5	41	-1	3	-1	1	13	-1	-1	24	63	62	49	43	-1	29	28	36	-1	-1	-1	-1	31
-1	61	20	26	-1	-1	45	36	1	-1	-1	-1	49	38	-1	27	-1	-1	-1	-1	-1	-1	-1	57	-1	-1	52	-1	15	58	-1	-1	-1	-1	-1	60	46	17	-1	51	30	-1	53	-1	-1	-1	23	-1	-1	-1	64	31	48	6	32	50	39	63	-1	-1	12	-1	16	-1
27	-1	-1	43	42	38	32	-1	-1	-1	29	35	-1	-1	-1	-1	51	-1	-1	30	8	7	23	-1	16	-1	-1	-1	18	-1	-1	12	-1	-1	1	-1	-1	22	24	-1	-1	63	20	15	-1	2	61	14	-1	-1	39	36	-1	-1	59	13	-1	25	-1	34	44	-1	26	62
-1	24	31	-1	-1	51	-1	-1	-1	8	63	-1	16	-1	50	-1	-1	-1	20	-1	-1	62	38	61	22	-1	-1	-1	-1	-1	57	-1	35	3	-1	36	-1	-1	30	2	37	6	12	-1	25	-1	-1	32	-1	-1	-1	9	-1	-1	-1	-1	-1	60	-1	-1	-1	42	-1	-1
55	-1	52	-1	-1	-1	19	15	-1	59	-1	-1	31	53	-1	60	42	-1	-1	-1	3	2	45	-1	50	61	13	54	27	-1	-1	-1	16	-1	-1	43	5	-1	28	-1	9	17	-1	36	10	-1	-1	-1	56	-1	8	29	37	-1	-1	23	21	-1	7	-1	30	32	46	14
-1	-1	64	-1	-1	53	18	13	-1	-1	7	-1	33	-1	15	55	48	-1	39	-1	-1	60	-1	-1	47	-1	-1	-1	24	-1	3	-1	40	23	-1	44	-1	-1	4	63	16	-1	34	28	-1	-1	56	-1	-1	-1	-1	26	-1	5	25	-1	-1	-1	-1	-1	-1	59	38	57
-1	56	-1	-1	-1	-1	3	-1	-1	24	26	23	-1	-1	6	-1	25	47	-1	33	-1	-1	-1	17	29	36	60	44	-1	40	-1	38	-1	-1	-1	-1	-1	-1	-1	62	-1	59	-1	-1	54	11	-1	-1	-1	-1	-1	7	19	15	-1	27	53	-1	22	-1	-1	13	-1	2
-1	54	-1	16	-1	25	41	58	62	32	-1	40	-1	3	36	2	-1	1	-1	64	55	9	12	-1	-1	59	-1	17	30	42	-1	48	26	27	15	56	-1	-1	-1	-1	39	-1	60	-1	-1	-1	51	-1	47	4	14	11	-1	61	-1	34	-1	50	20	37	-1	-1	10	52
-1	7	46	-1	-1	4	-1	-1	-1	18	-1	-1	-1	58	-1	24	50	-1	57	53	26	28	29	2	-1	-1	-1	-1	-1	-1	63	-1	-1	40	-1	-1	-1	-1	17	39	-1	34	-1	-1	-1	55	-1	15	-1	-1	-1	6	-1	-1	-1	9	38	44	23	33	20	-1	-1	45
-1	-1	-1	-1	57	26	50	-1	-1	43	-1	55	2	-1	-1	46	17	20	56	-1	-1	21	39	38	-1	-1	-1	35	-1	3	-1	-1	-1	-1	63	34	-1	-1	31	5	64	10	-1	-1	-1	-1	-1	18	62	25	-1	-1	-1	-1	60	-1	-1	-1	12	42	-1	30	15	16
44	51	2	24	-1	13	-1	-1	-1	-1	53	5	59	-1	29	-1	60	52	22	6	-1	-1	-1	-1	-1	15	57	-1	-1	43	33	19	30	26	-1	10	-1	7	47	-1	50	62	-1	-1	46	-1	-1	-1	-1	-1	-1	-1	-1	-1	45	-1	9	-1	55	3	-1	28	-1	56
-1	-1	25	62	-1	-1	43	8	-1	-1	33	-1	-1	-1	40	-1	61	-1	-1	-1	-1	3	11	-1	-1	-1	36	-1	-1	1	18	-1	42	54	45	-1	-1	-1	38	55	-1	-1	-1	23	-1	24	28	-1	12	-1	29	-1	-1	-1	51	-1	48	2	-1	-1	47	52	-1	-1
30	52	35	-1	22	-1	36	-1	-1	47	-1	13	48	-1	-1	42	40	51	-1	59	5	16	33	-1	21	-1	2	27	-1	39	-1	25	8	37	18	-1	-1	15	-1	58	56	-1	-1	-1	-1	-1	43	-1	24	28	46	-1	-1	20	57	38	26	62	31	17	29	19	41	10
64	-1	47	28	-1	-1	15	-1	-1	-1	25	-1	20	23	-1	-1	14	-1	-1	-1	-1	13	42	-1	-1	10	-1	-1	-1	-1	17	-1	24	-1	-1	-1	-1	36	51	-1	-1	-1	40	31	-1	45	35	11	-1	58	-1	30	-1	39	-1	26	57	49	-1	8	43	21	-1	-1
-1	-1	37	-1	40	-1	-1	11	14	-1	-1	57	39	-1	-1	16	10	-1	-1	35	49	25	-1	-1	-1	-1	47	29	56	23	61	-1	-1	-1	50	-1	41	-1	-1	28	-1	-1	-1	-1	-1	21	-1	-1	19	-1	-1	22	-1	34	64	44	59	18	58	-1	27	-1	36	24
60	-1	41	-1	-1	-1	27	32	6	15	-1	-1	17	-1	22	36	45	55	-1	-1	-1	-1	43	1	42	-1	30	62	-1	-1	-1	-1	-1	-1	-1	-1	25	57	64	11	26	-1	52	-1	-1	-1	-1	37	7	56	33	13	-1	47	2	49	-1	-1	50	4	63	34	14	-1
-1	-1	-1	-1	-1	6	-1	-1	-1	-1	-1	11	5	30	59	28	20	64	12	1	-1	-1	54	46	-1	-1	-1	-1	3	-1	-1	55	-1	8	-1	-1	-1	-1	33	-1	-1	-1	37	2	62	56	29	-1	43	-1	15	4	60	42	-1	22	31	-1	-1	-1	-1	25	23	32
-1	4	34	-1	-1	29	9	57	-1	-1	15	31	-1	-1	-1	-1	-1	-1	-1	38	62	39	53	56	14	-1	-1	-1	-1	-1	-1	27	44	10	-1	-1	-1	24	-1	-1	7	1	-1	45	-1	-1	-1	-1	-1	-1	5	33	2	21	-1	-1	3	-1	-1	28	-1	-1	37	55
2	43	12	31	47	64	-1	26	48	-1	-1	62	14	52	-1	38	32	57	59	-1	40	-1	-1	-1	-1	42	18	61	25	-1	-1	-1	46	-1	-1	-1	63	45	55	-1	53	-1	5	33	-1	-1	39	3	50	1	-1	-1	20	27	-1	41	-1	22	-1	36	35	44	54	-1
23	-1	16	44	-1	62	-1	-1	36	-1	-1	20	35	-1	55	-1	-1	-1	52	9	-1	-1	-1	-1	60	-1	-1	-1	-1	7	-1	33	-1	28	5	-1	64	-1	-1	-1	40	-1	61	27	-1	-1	26	-1	-1	19	-1	-1	10	-1	-1	-1	-1	59	-1	-1	24	12	-1	-1
-1	-1	40	-1	45	-1	11	42	-1	10	-1	-1	54	33	57	8	36	13	-1	23	-1	-1	-1	14	-1	-1	-1	12	35	-1	-1	-1	27	-1	-1	49	56	26	-1	43	47	-1	50	34	-1	-1	-1	19	-1	-1	-1	53	55	51	38	63	-1	-1	61	46	-1	15	17	-1
53	-1	61	-1	30	-1	38	25	-1	-1	-1	29	24	2	51	-1	6	-1	-1	3	27	44	-1	45	-1	5	62	-1	16	63	-1	8	39	15	9	35	52	21	-1	-1	-1	-1	-1	41	-1	18	22	-1	-1	49	-1	-1	58	-1	-1	-1	-1	-1	-1	-1	-1	4	7	-1
-1	-1	48	-1	28	-1	1	19	-1	27	-1	-1	-1	60	-1	-1	-1	15	-1	5	-1	-1	-1	21	24	-1	50	-1	46	-1	37	23	14	-1	-1	29	22	-1	62	7	11	35	-1	-1	58	31	55	51	61	40	-1	44	-1	30	-1	-1	-1	16	57	64	53	-1	34	38
-1	-1	3	20	-1	60	59	49	32	7	-1	-1	21	56	-1	-1	-1	18	35	51	-1	17	55	-1	28	-1	41	-1	57	-1	-1	2	-1	4	-1	38	16	-1	54	30	-1	52	44	12	-1	10	-1	9	-1	39	45	-1	-1	48	-1	62	-1	-1	19	13	-1	-1	40	-1
-1	-1	-1	-1	14	-1	55	47	45	44	64	-1	-1	59	-1	-1	56	29	-1	21	-1	-1	-1	-1	53	-1	-1	31	-1	-1	41	42	9	25	36	15	-1	37	-1	-1	-1	-1	28	61	-1	46	12	-1	-1	62	1	-1	-1	18	23	8	-1	19	39	-1	-1	-1	52	51
-1	-1	-1	9	61	-1	-1	-1	46	42	-1	-1	63	-1	30	-1	-1	41	44	-1	1	23	-1	52	49	-1	5	13	59	11	-1	50	7	34	-1	-1	17	-1	-1	-1	31	-1	-1	54	43	29	25	55	58	-1	47	27	40	-1	-1	-1	14	24	15	-1	-1	-1	62	22
54	44	1	-1	-1	56	64	59	-1	-1	-1	-1	62	61	23	6	-1	42	-1	57	-1	-1	35	-1	-1	16	-1	39	14	-1	26	-1	5	46	8	40	-1	-1	3	18	17	15	38	-1	-1	-1	-1	52	33	-1	2	49	22	-1	19	30	-1	10	-1	41	45	-1	13	48
63	-1	-1	15	24	-1	-1	52	-1	-1	-1	18	-1	-1	-1	3	49	2	-1	-1	-1	46	-1	-1	-1	-1	37	-1	-1	27	6	62	56	-1	31	-1	-1	-1	-1	20	-1	-1	-1	21	22	-1	7	-1	36	-1	11	39	25	43	61	-1	-1	-1	17	-1	-1	-1	-1	29
31	-1	-1	49	16	-1	-1	-1	29	-1	13	-1	-1	19	-1	-1	-1	-1	25	-1	-1	53	-1	3	-1	-1	35	-1	-1	-1	52	-1	21	-1	-1	-1	32	27	-1	23	-1	40	33	42	-1	30	62	44	9	7	48	57	14	46	26	-1	-1	-1	-1	12	-1	1	56	6
-1	12	-1	-1	43	40	51	-1	-1	-1	-1	-1	-1	55	-1	-1	13	-1	-1	50	-1	47	-1	-1	15	-1	7	33	28	61	46	-1	-1	-1	59	-1	-1	11	-1	26	1	-1	-1	14	-1	-1	-1	-1	64	-1	-1	52	-1	31	3	32	-1	-1	53	-1	25	36	-1	30
-1	-1	60	-1	-1	-1	7	6	-1	-1	-1	12	-1	-1	-1	43	-1	5	-1	54	-1	-1	31	-1	-1	-1	3	19	48	8	-1	29	63	22	-1	-1	49	-1	52	-1	-1	-1	-1	53	26	64	57	-1	-1	55	50	-1	-1	-1	15	-1	-1	32	18	-1	23	-1	-1	-1
-1	53	39	-1	-1	27	-1	46	20	35	52	25	37	1	28	14	15	-1	-1	-1	48	33	-1	-1	-1	55	-1	-1	-1	-1	23	45	51	-1	-1	-1	57	42	-1	13	2	47	-1	5	-1	50	16	58	-1	59	6	-1	29	10	-1	-1	7	-1	3	38	-1	-1	-1	-1
64 
42 34 54 61
53 23 12 54
3 43 1 1
2 4 9 8
20 22 39 19
1 5 58 40
1 32 51 51
52 2 47 11
4 63 62 23
29 12 5 28
56 55 12 32
50 36 45 48
42 57 29 3
26 39 45 4
26 37 28 22
44 36 50 15
55 35 33 14
21 19 64 23
20 12 28 57
62 24 43 29
34 1 13 6
64 28 5 18
50 10 43 53
4 43 37 24
56 24 53 42
56 16 26 60
41 15 42 45
31 20 9 46
5 49 59 38
7 32 1 55
31 63 19 22
54 2 32 53
36 7 10 12
27 55 16 40
58 62 29 30
28 51 6 5
56 33 39 23
43 47 8 3
37 35 52 26
54 9 7 23
52 40 34 59
38 42 33 56
2 33 9 26
64 64 13 40
16 54 19 11
14 41 40 13
52 55 59 32
25 15 15 7
39 33 44 10
31 26 26 40
28 25 16 43
23 58 24 34
25 49 1 30
47 62 10 36
25 37 47 25
51 7 63 42
39 44 21 23
63 26 31 28
9 27 14 11
62 15 18 49
15 25 64 36
41 37 16 48
45 53 28 64
16 59 31 19
